p edge 30 39 20
v 2 5 22
v 1 29
v 3 8 12 13
v 2 16 21
v 1 25
v 1 17
v 2 18 28
v 1 30
v 1 27
v 2 10 11
v 1 4
v 1 23
v 2 6 20
v 2 3 15
v 1 1
v 1 24
v 1 26
v 1 19
v 3 2 7 14
v 1 9
e 1 7
e 1 9
e 1 29
e 2 5
e 2 6
e 2 20
e 2 25
e 2 28
e 3 9
e 3 17
e 4 11
e 4 29
e 4 30
e 6 20
e 6 21
e 6 23
e 7 21
e 7 22
e 8 9
e 9 21
e 9 27
e 10 21
e 11 12
e 11 22
e 11 27
e 13 17
e 15 27
e 15 28
e 16 23
e 18 19
e 18 26
e 19 30
e 20 27
e 20 29
e 21 27
e 23 26
e 23 28
e 24 27
e 26 29
